eval/id=996_n=25_m=106.cnf
p cnf 25 106
-4 -10 21 0
-4 -17 19 0
-5 -15 24 0
17 -19 -25 0
-5 15 18 0
-9 -13 25 0
-1 -13 14 0
-1 22 -25 0
10 12 23 0
-3 12 -20 0
-1 5 -10 0
1 -11 12 0
-2 -21 23 0
-10 -15 -17 0
2 17 23 0
10 -13 18 0
1 21 -23 0
-3 -18 24 0
4 18 -24 0
-4 17 -21 0
9 21 -23 0
2 6 -9 0
9 17 24 0
9 13 23 0
5 14 20 0
6 -7 -25 0
-14 -20 -24 0
7 8 24 0
8 13 16 0
5 6 -10 0
-2 -8 -12 0
-4 6 -14 0
9 18 -24 0
-8 -12 18 0
1 17 -21 0
16 -17 -19 0
4 15 -22 0
16 -19 -21 0
-9 10 19 0
9 -10 23 0
-2 -19 23 0
-1 -18 22 0
-1 18 -22 0
12 -14 19 0
2 -7 11 0
7 21 -24 0
15 19 24 0
-10 16 -25 0
1 16 23 0
-10 -17 -19 0
-6 -8 -14 0
2 -11 17 0
-5 7 -25 0
6 -8 15 0
-10 -11 17 0
2 -5 -13 0
-2 4 -17 0
-8 -22 -25 0
-11 -14 -23 0
-15 -16 -17 0
-4 -16 -22 0
-9 17 21 0
-15 18 -19 0
-6 7 19 0
1 12 15 0
7 11 13 0
16 23 -24 0
1 17 20 0
-12 18 19 0
17 19 -22 0
-7 16 -23 0
7 10 -14 0
6 12 -18 0
1 6 -19 0
8 -9 -20 0
-2 12 -21 0
1 -6 -8 0
2 14 -17 0
6 15 17 0
-6 8 17 0
1 -6 11 0
-9 -11 17 0
-1 -19 -24 0
-1 -12 21 0
-11 -15 19 0
-11 13 25 0
11 23 24 0
-2 -5 22 0
1 -2 21 0
-2 -19 22 0
-3 5 13 0
13 20 -24 0
2 13 14 0
11 -16 21 0
3 11 -24 0
9 14 -23 0
1 3 13 0
1 -24 -25 0
-3 4 16 0
4 12 -14 0
10 -20 -22 0
8 -9 -12 0
-6 -18 23 0
3 7 20 0
-4 7 21 0
-11 -16 -21 0
