eval/id=996_n=25_m=106.wcnf
p wcnf 25 106 1000
1000 -4 -10 21 0
1000 -4 -17 19 0
1000 -5 -15 24 0
1000 17 -19 -25 0
1000 -5 15 18 0
1000 -9 -13 25 0
1000 -1 -13 14 0
1000 -1 22 -25 0
1000 10 12 23 0
1000 -3 12 -20 0
1000 -1 5 -10 0
1000 1 -11 12 0
1000 -2 -21 23 0
12 -10 -15 -17 0
1000 2 17 23 0
1000 10 -13 18 0
1000 1 21 -23 0
1000 -3 -18 24 0
12 4 18 -24 0
1000 -4 17 -21 0
1000 9 21 -23 0
38 2 6 -9 0
1000 9 17 24 0
1000 9 13 23 0
1000 5 14 20 0
1000 6 -7 -25 0
1000 -14 -20 -24 0
1000 7 8 24 0
1000 8 13 16 0
1000 5 6 -10 0
1000 -2 -8 -12 0
4 -4 6 -14 0
1000 9 18 -24 0
1000 -8 -12 18 0
1000 1 17 -21 0
1000 16 -17 -19 0
1000 4 15 -22 0
1000 16 -19 -21 0
1000 -9 10 19 0
1000 9 -10 23 0
1000 -2 -19 23 0
1000 -1 -18 22 0
98 -1 18 -22 0
1000 12 -14 19 0
1000 2 -7 11 0
1000 7 21 -24 0
49 15 19 24 0
1000 -10 16 -25 0
1000 1 16 23 0
1000 -10 -17 -19 0
63 -6 -8 -14 0
1000 2 -11 17 0
1000 -5 7 -25 0
1000 6 -8 15 0
1000 -10 -11 17 0
1000 2 -5 -13 0
1000 -2 4 -17 0
1000 -8 -22 -25 0
1000 -11 -14 -23 0
1000 -15 -16 -17 0
1000 -4 -16 -22 0
1000 -9 17 21 0
1000 -15 18 -19 0
1000 -6 7 19 0
1000 1 12 15 0
1000 7 11 13 0
1000 16 23 -24 0
1000 1 17 20 0
1000 -12 18 19 0
1000 17 19 -22 0
1000 -7 16 -23 0
20 7 10 -14 0
1000 6 12 -18 0
1000 1 6 -19 0
1000 8 -9 -20 0
63 -2 12 -21 0
1000 1 -6 -8 0
1000 2 14 -17 0
58 6 15 17 0
1000 -6 8 17 0
1000 1 -6 11 0
12 -9 -11 17 0
1000 -1 -19 -24 0
1000 -1 -12 21 0
4 -11 -15 19 0
1000 -11 13 25 0
1000 11 23 24 0
1000 -2 -5 22 0
1000 1 -2 21 0
1000 -2 -19 22 0
12 -3 5 13 0
1000 13 20 -24 0
1000 2 13 14 0
71 11 -16 21 0
1000 3 11 -24 0
1000 9 14 -23 0
1000 1 3 13 0
1000 1 -24 -25 0
1000 -3 4 16 0
1000 4 12 -14 0
1000 10 -20 -22 0
1000 8 -9 -12 0
1000 -6 -18 23 0
1000 3 7 20 0
1000 -4 7 21 0
28 -11 -16 -21 0
